2039906
0 6 35813
6 10 229782
10 19 34793
19 4 53722
4 17 90145
17 13 103707
13 7 61570
7 14 67784
14 18 105167
18 3 238490
3 15 223221
15 9 21151
9 5 253563
5 11 255761
11 8 50022
8 12 45505
12 16 27808
16 2 20583
2 1 14476
1 0 106843
